40
1 90 700
2 726 183
3 56 411
4 106 582
5 235 321
6 701 292
7 265 507
8 402 506
9 363 623
10 777 566
11 16 174
12 547 358
13 292 324
14 199 518
15 162 658
16 69 726
17 120 319
18 57 304
19 394 618
20 657 184
21 218 450
22 402 405
23 326 409
24 729 415
25 722 791
26 382 633
27 168 683
28 253 704
29 317 40
30 344 741
31 246 429
32 215 632
33 650 324
34 658 453
35 490 656
36 560 580
37 510 257
38 656 267
39 18 170
40 617 582
